networks/zoo_84_689/zoo_84_689.txt
Number of groups: 57
Flow 1: {1 4} 
Flow 3: {1 36} {36 8} {8 24} {24 13} {13 55} 
Flow 37: {3 23} {23 32} {32 5} {5 17} {17 59} 
Flow 43: {4 1} 
Flow 64: {4 36} {36 38} {38 26} {26 68} 
Flow 67: {4 31} {31 30} {30 29} {29 71} 
Flow 70: {32 74} 
Flow 72: {34 76} 
Flow 78: {40 41} 
Flow 79: {4 2} {2 8} {8 42} {42 84} 
Flow 91: {24 15} {15 57} 
Flow 100: {5 32} {32 27} 
Flow 103: {6 29} {29 30} {30 72} 
Flow 125: {7 2} {2 4} 
Flow 126: {7 8} 
Flow 134: {42 6} {6 48} 
Flow 147: {8 31} {31 25} {25 67} 
Flow 185: {11 35} {35 36} {36 4} {4 46} 
Flow 193: {12 35} {35 38} 
Flow 204: {13 24} {24 66} 
Flow 210: {14 24} {24 8} {8 2} {2 44} 
Flow 221: {15 24} {24 16} {16 58} 
Flow 243: {16 24} {24 14} {14 56} 
Flow 266: {17 5} {5 6} {6 9} {9 10} {10 52} 
Flow 279: {9 28} 
Flow 282: {6 42} {42 8} {8 33} 
Flow 290: {18 35} {35 32} 
Flow 299: {19 35} {35 77} 
Flow 303: {20 35} 
Flow 310: {21 2} {2 34} {34 32} {32 38} {38 80} 
Flow 326: {22 35} {35 18} {18 60} 
Flow 327: {32 23} {23 65} 
Flow 382: {8 30} {30 10} {10 28} {28 70} 
Flow 392: {24 41} {41 83} 
Flow 397: {25 26} {26 38} {38 32} 
Flow 411: {26 25} {25 31} {31 73} 
Flow 420: {27 32} {32 35} {35 22} {22 64} 
Flow 424: {27 23} {23 38} {38 37} {37 79} 
Flow 427: {28 10} {10 30} {30 31} {31 4} 
Flow 429: {28 9} {9 6} 
Flow 445: {29 6} {6 5} {5 47} 
Flow 446: {30 8} {8 50} 
Flow 461: {2 3} {3 45} 
Flow 481: {31 38} {38 23} {23 27} {27 69} 
Flow 497: {32 34} {34 2} {2 7} {7 49} 
Flow 525: {36 1} {1 43} 
Flow 559: {38 39} {39 81} 
Flow 606: {37 35} {35 12} {12 54} 
Flow 623: {37 38} {38 31} {31 33} {33 75} 
Flow 634: {31 8} {8 7} 
Flow 636: {10 9} {9 51} 
Flow 638: {38 35} {35 11} {11 53} 
Flow 660: {8 40} {40 82} 
Flow 663: {39 23} {23 3} {3 2} 
Flow 666: {39 38} {38 36} {36 78} 
Flow 676: {40 8} {8 36} {36 35} {35 37} 
Flow 679: {41 24} 
Time taken running everything: 15 seconds
